10	5
0	4	1	4	3	2
1	0
2	2	5	9
3	2	5	7
4	1	6
5	1	10
6	2	5	9
7	1	10
8	0
9	1	8
10	1	11
11	0
0	0	0	0	0	0	0
1	10	3	0	0	0	0
2	4	1	4	4	5	2
3	10	1	0	0	0	0
4	10	1	3	4	5	2
5	6	5	4	0	0	4
6	1	2	5	0	0	0
7	6	5	0	0	1	0
8	5	1	5	0	0	0
9	1	3	1	0	0	0
10	7	0	0	0	3	2
11	0	0	0	0	0	0
8	9	7	8	6
